/* Objective function */
min: - 0.0054fpdi - 0.0054fpdo + 0.05apdi + 0.05apdo + 0.0002pi + 0.0002po - 0.5fsi - 0.5fso;

apdi = 0.0 hi + -0.0 li + 12.20761 ri + -0.00519 ci + -1.8437 si + 0.0 ti + 0.1293 fTempIi + 0.0038 ami + -150.71815;
asi = 0.0 hi + 0.0 li + 0.0 ri + 0.0 ci + 0.0 si + 0.0 ti + -0.0 fTempIi + 4e-05 ami + 0.00714;
aTempOi = 0.0 hi + -0.0 li + 0.28901 ri + -0.028 ci + -0.05114 si + 0.0 ti + 0.78656 fTempIi + -0.00012 ami + 7.04235;
fpdi = 0.0 hi + -0.0 li + 11.0899 ri + -7.54915 ci + -0.02399 si + 0.0 ti + -0.59977 fTempIi + 5e-05 ami + 311.51406;
fsi = 0.0 hi + 0.0 li + 0.0 ri + -0.0279 ci + 0.0 si + 0.0 ti + -0.0 fTempIi + -0.0 ami + 2.20057;
fTempOi = 0.0 hi + 0.0 li + -0.2862 ri + 0.02811 ci + 0.05068 si + 0.0 ti + 0.23052 fTempIi + -0.0001 ami + 9.63226;
pi = 0.0 hi + -0.0 li + 618.25556 ri + 3.32825 ci + -65.60762 si + 0.0 ti + -0.0 fTempIi + -0.0 ami + 2464.66413;

apdo = 0.0 ho + -0.0 lo + 10.35437 ro + 0.00397 co + -1.46384 so + 0.0 to + 0.10259 fTempIo + 0.00339 amo + -119.30427;
aso = 0.0 ho + 0.0 lo + 0.0 ro + -0.0 co + 0.0 so + 0.0 to + 0.0 fTempIo + 4e-05 amo + 0.00714;
aTempOo = 0.0 ho + -0.0 lo + -0.33955 ro + 0.03058 co + 0.04362 so + 0.0 to + 0.71893 fTempIo + 0.00012 amo + 0.35274;
fpdo = 0.0 ho + -0.0 lo + 7.50348 ro + -4.66266 co + 0.01444 so + 0.0 to + -0.44103 fTempIo + -4e-05 amo + 215.69417;
fso = 0.0 ho + 0.0 lo + -0.0 ro + -0.02167 co + 0.0 so + 0.0 to + 0.0 fTempIo + 0.0 amo + 1.92667;
fTempOo = 0.0 ho + -0.0 lo + 0.33449 ro + -0.03012 co + -0.04296 so + 0.0 to + 0.28709 fTempIo + 0.00011 amo + 12.2466;
po = 0.0 ho + -0.0 lo + 714.95833 ro + 3.325 co + -73.418 so + 0.0 to + -0.0 fTempIo + 0.0 amo + 3691.74333;

/* Variable bounds */
aTempOi > 18.6;
1 =r6i + r8i + r10i + r12i + r14i;
ri =6r6i + 8r8i + 10r10i + 12r12i + 14r14i;
1 =s25i + s30i + s40i;
si =25s25i + 30s30i + 40s40i;
ti = 1;
apdi > 100;
apdi < 300;
asi > 0;
asi < 3;
aTempOi > 5;
aTempOi < 25;
fpdi > 100;
fpdi < 300;
fsi > 0;
fsi < 1.25;
fTempOi > 5;
fTempOi < 25;
pi > 0;
ri > 6;
ri < 14;
ci > 32;
ci < 60;
si > 25;
si < 60;
ti > 1;
ti < 3;
fTempIi > 5;
fTempIi < 25;

/* aTempOo < 11.4; */
1 =r6o + r8o + r10o + r12o + r14o;
ro =6r6o + 8r8o + 10r10o + 12r12o + 14r14o;
1 =s30o + s40o + s50o + s60o;
so =30s30o + 40s40o + 50s50o + 60s60o;
to = 3;
apdo > 100;
apdo < 300;
aso > 0;
aso < 3;
aTempOo > 5;
aTempOo < 25;
fpdo > 100;
fpdo < 300;
fso > 0;
fso < 1.25;
fTempOo > 5;
fTempOo < 25;
po > 0;
ro > 6;
ro < 14;
co > 41;
co < 60;
so > 25;
so < 60;
to > 1;
to < 3;
fTempIo > 5;
fTempIo < 25;
int hi,li,si,ti,ci,ri,ami;
int ho,lo,so,to,co,ro,amo;
bin s25i,s30i,s40i,s50i,s60i,r6i,r8i,r10i,r12i,r14i;
bin s25o,s30o,s40o,s50o,s60o,r6o,r8o,r10o,r12o,r14o;
